NqueensAllSolution.result.smt2
continue-if-sat
sat
continue-if-sat
sat
model-to-constraint-start-1
(r0 r1 r2 r3 r4)
(
  (define-fun r0 () Int
    3)
  (define-fun r1 () Int
    1)
  (define-fun r3 () Int
    2)
  (define-fun r2 () Int
    4)
  (define-fun r4 () Int
    0)
)
model-to-constraint-end-1
continue-if-sat
sat
continue-if-sat
sat
model-to-constraint-start-2
(r0 r1 r2 r3 r4)
(
  (define-fun r0 () Int
    2)
  (define-fun r1 () Int
    0)
  (define-fun r3 () Int
    1)
  (define-fun r2 () Int
    3)
  (define-fun r4 () Int
    4)
  (define-fun r1_from_model_1 () Int
    1)
  (define-fun r0_from_model_1 () Int
    3)
  (define-fun r2_from_model_1 () Int
    4)
  (define-fun r4_from_model_1 () Int
    0)
  (define-fun r3_from_model_1 () Int
    2)
)
model-to-constraint-end-2
continue-if-sat
sat
continue-if-sat
sat
model-to-constraint-start-3
(r0 r1 r2 r3 r4)
(
  (define-fun r0 () Int
    1)
  (define-fun r1 () Int
    4)
  (define-fun r3 () Int
    0)
  (define-fun r2 () Int
    2)
  (define-fun r4 () Int
    3)
  (define-fun r0_from_model_1 () Int
    3)
  (define-fun r2_from_model_2 () Int
    3)
  (define-fun r0_from_model_2 () Int
    2)
  (define-fun r1_from_model_1 () Int
    1)
  (define-fun r2_from_model_1 () Int
    4)
  (define-fun r4_from_model_1 () Int
    0)
  (define-fun r3_from_model_2 () Int
    1)
  (define-fun r4_from_model_2 () Int
    4)
  (define-fun r1_from_model_2 () Int
    0)
  (define-fun r3_from_model_1 () Int
    2)
)
model-to-constraint-end-3
continue-if-sat
sat
continue-if-sat
sat
model-to-constraint-start-4
(r0 r1 r2 r3 r4)
(
  (define-fun r0 () Int
    0)
  (define-fun r1 () Int
    3)
  (define-fun r3 () Int
    4)
  (define-fun r2 () Int
    1)
  (define-fun r4 () Int
    2)
  (define-fun r0_from_model_1 () Int
    3)
  (define-fun r2_from_model_2 () Int
    3)
  (define-fun r1_from_model_3 () Int
    4)
  (define-fun r1_from_model_1 () Int
    1)
  (define-fun r2_from_model_1 () Int
    4)
  (define-fun r4_from_model_1 () Int
    0)
  (define-fun r0_from_model_3 () Int
    1)
  (define-fun r4_from_model_3 () Int
    3)
  (define-fun r3_from_model_1 () Int
    2)
  (define-fun r2_from_model_3 () Int
    2)
  (define-fun r0_from_model_2 () Int
    2)
  (define-fun r3_from_model_2 () Int
    1)
  (define-fun r4_from_model_2 () Int
    4)
  (define-fun r1_from_model_2 () Int
    0)
  (define-fun r3_from_model_3 () Int
    0)
)
model-to-constraint-end-4
continue-if-sat
sat
continue-if-sat
sat
model-to-constraint-start-5
(r0 r1 r2 r3 r4)
(
  (define-fun r0 () Int
    0)
  (define-fun r1 () Int
    2)
  (define-fun r3 () Int
    1)
  (define-fun r2 () Int
    4)
  (define-fun r4 () Int
    3)
  (define-fun r0_from_model_1 () Int
    3)
  (define-fun r2_from_model_2 () Int
    3)
  (define-fun r1_from_model_3 () Int
    4)
  (define-fun r3_from_model_4 () Int
    4)
  (define-fun r1_from_model_1 () Int
    1)
  (define-fun r2_from_model_1 () Int
    4)
  (define-fun r4_from_model_1 () Int
    0)
  (define-fun r0_from_model_3 () Int
    1)
  (define-fun r4_from_model_3 () Int
    3)
  (define-fun r1_from_model_4 () Int
    3)
  (define-fun r3_from_model_1 () Int
    2)
  (define-fun r4_from_model_4 () Int
    2)
  (define-fun r2_from_model_3 () Int
    2)
  (define-fun r0_from_model_2 () Int
    2)
  (define-fun r3_from_model_2 () Int
    1)
  (define-fun r4_from_model_2 () Int
    4)
  (define-fun r2_from_model_4 () Int
    1)
  (define-fun r0_from_model_4 () Int
    0)
  (define-fun r1_from_model_2 () Int
    0)
  (define-fun r3_from_model_3 () Int
    0)
)
model-to-constraint-end-5
continue-if-sat
sat
continue-if-sat
sat
model-to-constraint-start-6
(r0 r1 r2 r3 r4)
(
  (define-fun r0 () Int
    1)
  (define-fun r1 () Int
    3)
  (define-fun r3 () Int
    2)
  (define-fun r2 () Int
    0)
  (define-fun r4 () Int
    4)
  (define-fun r1_from_model_5 () Int
    2)
  (define-fun r0_from_model_1 () Int
    3)
  (define-fun r1_from_model_3 () Int
    4)
  (define-fun r3_from_model_4 () Int
    4)
  (define-fun r1_from_model_1 () Int
    1)
  (define-fun r4_from_model_1 () Int
    0)
  (define-fun r0_from_model_3 () Int
    1)
  (define-fun r1_from_model_4 () Int
    3)
  (define-fun r4_from_model_4 () Int
    2)
  (define-fun r0_from_model_2 () Int
    2)
  (define-fun r3_from_model_2 () Int
    1)
  (define-fun r4_from_model_2 () Int
    4)
  (define-fun r1_from_model_2 () Int
    0)
  (define-fun r3_from_model_3 () Int
    0)
  (define-fun r0_from_model_5 () Int
    0)
  (define-fun r2_from_model_2 () Int
    3)
  (define-fun r2_from_model_1 () Int
    4)
  (define-fun r4_from_model_3 () Int
    3)
  (define-fun r3_from_model_1 () Int
    2)
  (define-fun r2_from_model_5 () Int
    4)
  (define-fun r2_from_model_3 () Int
    2)
  (define-fun r4_from_model_5 () Int
    3)
  (define-fun r2_from_model_4 () Int
    1)
  (define-fun r0_from_model_4 () Int
    0)
  (define-fun r3_from_model_5 () Int
    1)
)
model-to-constraint-end-6
continue-if-sat
sat
continue-if-sat
sat
model-to-constraint-start-7
(r0 r1 r2 r3 r4)
(
  (define-fun r0 () Int
    3)
  (define-fun r1 () Int
    0)
  (define-fun r3 () Int
    4)
  (define-fun r2 () Int
    2)
  (define-fun r4 () Int
    1)
  (define-fun r1_from_model_5 () Int
    2)
  (define-fun r0_from_model_1 () Int
    3)
  (define-fun r1_from_model_3 () Int
    4)
  (define-fun r3_from_model_4 () Int
    4)
  (define-fun r1_from_model_1 () Int
    1)
  (define-fun r4_from_model_1 () Int
    0)
  (define-fun r0_from_model_3 () Int
    1)
  (define-fun r1_from_model_4 () Int
    3)
  (define-fun r4_from_model_4 () Int
    2)
  (define-fun r0_from_model_2 () Int
    2)
  (define-fun r3_from_model_2 () Int
    1)
  (define-fun r4_from_model_2 () Int
    4)
  (define-fun r1_from_model_2 () Int
    0)
  (define-fun r3_from_model_3 () Int
    0)
  (define-fun r0_from_model_5 () Int
    0)
  (define-fun r2_from_model_2 () Int
    3)
  (define-fun r4_from_model_6 () Int
    4)
  (define-fun r3_from_model_6 () Int
    2)
  (define-fun r2_from_model_1 () Int
    4)
  (define-fun r4_from_model_3 () Int
    3)
  (define-fun r3_from_model_1 () Int
    2)
  (define-fun r2_from_model_5 () Int
    4)
  (define-fun r1_from_model_6 () Int
    3)
  (define-fun r0_from_model_6 () Int
    1)
  (define-fun r2_from_model_3 () Int
    2)
  (define-fun r4_from_model_5 () Int
    3)
  (define-fun r2_from_model_4 () Int
    1)
  (define-fun r0_from_model_4 () Int
    0)
  (define-fun r3_from_model_5 () Int
    1)
  (define-fun r2_from_model_6 () Int
    0)
)
model-to-constraint-end-7
continue-if-sat
sat
continue-if-sat
sat
model-to-constraint-start-8
(r0 r1 r2 r3 r4)
(
  (define-fun r0 () Int
    2)
  (define-fun r1 () Int
    4)
  (define-fun r3 () Int
    3)
  (define-fun r2 () Int
    1)
  (define-fun r4 () Int
    0)
  (define-fun r1_from_model_5 () Int
    2)
  (define-fun r0_from_model_1 () Int
    3)
  (define-fun r1_from_model_3 () Int
    4)
  (define-fun r3_from_model_4 () Int
    4)
  (define-fun r1_from_model_1 () Int
    1)
  (define-fun r4_from_model_1 () Int
    0)
  (define-fun r0_from_model_3 () Int
    1)
  (define-fun r1_from_model_4 () Int
    3)
  (define-fun r4_from_model_4 () Int
    2)
  (define-fun r4_from_model_7 () Int
    1)
  (define-fun r0_from_model_2 () Int
    2)
  (define-fun r3_from_model_2 () Int
    1)
  (define-fun r4_from_model_2 () Int
    4)
  (define-fun r0_from_model_7 () Int
    3)
  (define-fun r1_from_model_2 () Int
    0)
  (define-fun r3_from_model_3 () Int
    0)
  (define-fun r0_from_model_5 () Int
    0)
  (define-fun r2_from_model_2 () Int
    3)
  (define-fun r4_from_model_6 () Int
    4)
  (define-fun r3_from_model_6 () Int
    2)
  (define-fun r2_from_model_1 () Int
    4)
  (define-fun r4_from_model_3 () Int
    3)
  (define-fun r3_from_model_1 () Int
    2)
  (define-fun r2_from_model_5 () Int
    4)
  (define-fun r1_from_model_6 () Int
    3)
  (define-fun r3_from_model_7 () Int
    4)
  (define-fun r0_from_model_6 () Int
    1)
  (define-fun r2_from_model_3 () Int
    2)
  (define-fun r4_from_model_5 () Int
    3)
  (define-fun r1_from_model_7 () Int
    0)
  (define-fun r2_from_model_7 () Int
    2)
  (define-fun r2_from_model_4 () Int
    1)
  (define-fun r0_from_model_4 () Int
    0)
  (define-fun r3_from_model_5 () Int
    1)
  (define-fun r2_from_model_6 () Int
    0)
)
model-to-constraint-end-8
continue-if-sat
sat
continue-if-sat
sat
model-to-constraint-start-9
(r0 r1 r2 r3 r4)
(
  (define-fun r0 () Int
    4)
  (define-fun r1 () Int
    2)
  (define-fun r3 () Int
    3)
  (define-fun r2 () Int
    0)
  (define-fun r4 () Int
    1)
  (define-fun r1_from_model_5 () Int
    2)
  (define-fun r0_from_model_1 () Int
    3)
  (define-fun r1_from_model_3 () Int
    4)
  (define-fun r3_from_model_4 () Int
    4)
  (define-fun r1_from_model_1 () Int
    1)
  (define-fun r4_from_model_1 () Int
    0)
  (define-fun r0_from_model_3 () Int
    1)
  (define-fun r1_from_model_4 () Int
    3)
  (define-fun r4_from_model_4 () Int
    2)
  (define-fun r4_from_model_7 () Int
    1)
  (define-fun r0_from_model_2 () Int
    2)
  (define-fun r3_from_model_2 () Int
    1)
  (define-fun r4_from_model_2 () Int
    4)
  (define-fun r0_from_model_7 () Int
    3)
  (define-fun r1_from_model_2 () Int
    0)
  (define-fun r3_from_model_3 () Int
    0)
  (define-fun r0_from_model_5 () Int
    0)
  (define-fun r2_from_model_2 () Int
    3)
  (define-fun r1_from_model_8 () Int
    4)
  (define-fun r2_from_model_8 () Int
    1)
  (define-fun r4_from_model_6 () Int
    4)
  (define-fun r3_from_model_6 () Int
    2)
  (define-fun r2_from_model_1 () Int
    4)
  (define-fun r4_from_model_3 () Int
    3)
  (define-fun r3_from_model_1 () Int
    2)
  (define-fun r2_from_model_5 () Int
    4)
  (define-fun r1_from_model_6 () Int
    3)
  (define-fun r3_from_model_7 () Int
    4)
  (define-fun r4_from_model_8 () Int
    0)
  (define-fun r0_from_model_6 () Int
    1)
  (define-fun r2_from_model_3 () Int
    2)
  (define-fun r4_from_model_5 () Int
    3)
  (define-fun r1_from_model_7 () Int
    0)
  (define-fun r2_from_model_7 () Int
    2)
  (define-fun r0_from_model_8 () Int
    2)
  (define-fun r2_from_model_4 () Int
    1)
  (define-fun r0_from_model_4 () Int
    0)
  (define-fun r3_from_model_5 () Int
    1)
  (define-fun r2_from_model_6 () Int
    0)
  (define-fun r3_from_model_8 () Int
    3)
)
model-to-constraint-end-9
continue-if-sat
sat
continue-if-sat
sat
model-to-constraint-start-10
(r0 r1 r2 r3 r4)
(
  (define-fun r0 () Int
    4)
  (define-fun r1 () Int
    1)
  (define-fun r3 () Int
    0)
  (define-fun r2 () Int
    3)
  (define-fun r4 () Int
    2)
  (define-fun r1_from_model_5 () Int
    2)
  (define-fun r0_from_model_1 () Int
    3)
  (define-fun r1_from_model_3 () Int
    4)
  (define-fun r1_from_model_9 () Int
    2)
  (define-fun r3_from_model_4 () Int
    4)
  (define-fun r1_from_model_1 () Int
    1)
  (define-fun r4_from_model_1 () Int
    0)
  (define-fun r0_from_model_3 () Int
    1)
  (define-fun r1_from_model_4 () Int
    3)
  (define-fun r4_from_model_9 () Int
    1)
  (define-fun r2_from_model_9 () Int
    0)
  (define-fun r4_from_model_4 () Int
    2)
  (define-fun r4_from_model_7 () Int
    1)
  (define-fun r0_from_model_2 () Int
    2)
  (define-fun r3_from_model_2 () Int
    1)
  (define-fun r4_from_model_2 () Int
    4)
  (define-fun r0_from_model_7 () Int
    3)
  (define-fun r1_from_model_2 () Int
    0)
  (define-fun r3_from_model_3 () Int
    0)
  (define-fun r0_from_model_5 () Int
    0)
  (define-fun r2_from_model_2 () Int
    3)
  (define-fun r1_from_model_8 () Int
    4)
  (define-fun r2_from_model_8 () Int
    1)
  (define-fun r4_from_model_6 () Int
    4)
  (define-fun r3_from_model_6 () Int
    2)
  (define-fun r2_from_model_1 () Int
    4)
  (define-fun r4_from_model_3 () Int
    3)
  (define-fun r3_from_model_1 () Int
    2)
  (define-fun r2_from_model_5 () Int
    4)
  (define-fun r1_from_model_6 () Int
    3)
  (define-fun r3_from_model_7 () Int
    4)
  (define-fun r4_from_model_8 () Int
    0)
  (define-fun r3_from_model_9 () Int
    3)
  (define-fun r0_from_model_6 () Int
    1)
  (define-fun r2_from_model_3 () Int
    2)
  (define-fun r4_from_model_5 () Int
    3)
  (define-fun r1_from_model_7 () Int
    0)
  (define-fun r2_from_model_7 () Int
    2)
  (define-fun r0_from_model_8 () Int
    2)
  (define-fun r2_from_model_4 () Int
    1)
  (define-fun r0_from_model_4 () Int
    0)
  (define-fun r3_from_model_5 () Int
    1)
  (define-fun r2_from_model_6 () Int
    0)
  (define-fun r3_from_model_8 () Int
    3)
  (define-fun r0_from_model_9 () Int
    4)
)
model-to-constraint-end-10
continue-if-sat
unsat
continue-if-sat
unsat
model-to-constraint-start-11
(r0 r1 r2 r3 r4)
(error "line 380 column 12: model is not available")
model-to-constraint-end-11
